Traveling Salesman Problem/TSP_generados/Aleatorio1621103752_18.tsp
NAME: Aleatorio1621103752_18.tsp
COMMENT: Randomly generated scenario
TYPE: TSP
DIMENSION: 18
EDGE_WEIGHT_TYPE: ATT
NODE_COORD_SECTION
1 12.88 39.59
2 36.92 10.21
3 5.67 49.39
4 34.88 14.01
5 15.09 36.98
6 14.64 8.22
7 25.15 5.82
8 10.92 40.49
9 19.68 37.56
10 29.49 46.19
11 46.27 43.71
12 11.94 7.1
13 13.7 47.99
14 21.56 24.68
15 20.45 47.23
16 4.06 35.85
17 20.7 35.96
18 17.5 13.69
