Traveling Salesman Problem/TSP_generados/Aleatorio1621103752_18.opt.tour
NAME: Aleatorio1621103752_18.opt.tour
COMMENT: Optimal solution for Aleatorio1621103752_18 (169.06226085320057)
TYPE: TOUR
DIMENSION: 18
TOUR_SECTION
1 5 9 17 14 18 12 6 7 2 4 11 10 15 13 3 16 8
-1
EOF
